c WARNING: for repeatability, setting FPU to use double precision
d VARIABLES            203970       
d CONSTRAINTS          925437       
c ============================[ Problem Statistics ]=============================
c |                                                                             |
c |  Number of variables:        203970                                         |
c |  Number of clauses:          925437                                         |
c |  Parse time:                   0.16 s                                       |
c |                                                                             |
c ============================[ Search Statistics ]==============================
c | Conflicts |          ORIGINAL         |          LEARNT          | Progress |
c |           |    Vars  Clauses Literals |    Limit  Clauses Lit/Cl |          |
c ===============================================================================
c |       100 |  177995   851161  2059850 |   312092      100      7 | 12.735 % |
c |       250 |  177995   851161  2059850 |   343301      250     38 | 12.735 % |
c |       475 |  177995   851161  2059850 |   377631      475     29 | 12.735 % |
c |       812 |  177995   851161  2059850 |   415394      812     30 | 12.735 % |
c |      1318 |  177995   851161  2059850 |   456934     1318     90 | 12.735 % |
c |      2077 |  177995   851161  2059850 |   502627     2077     96 | 12.735 % |
c |      3216 |  177995   851161  2059850 |   552890     3216    128 | 12.735 % |
c |      4924 |  177994   851147  2059815 |   608179     4923    131 | 12.735 % |
c |      7486 |  177994   851147  2059815 |   668997     7485    162 | 12.735 % |
c |     11330 |  177994   851147  2059815 |   735897    11329    174 | 12.735 % |
c |     17096 |  177994   851147  2059815 |   809487    17095    174 | 12.735 % |
c |     25745 |  177994   851147  2059815 |   890435    25744    182 | 12.735 % |
c |     38719 |  177993   851138  2059795 |   979479    38713    186 | 12.736 % |
c |     58180 |  177991   851108  2059719 |  1077427    58155    172 | 12.737 % |
c |     87372 |  177990   851093  2059681 |  1185170    87333    177 | 12.737 % |
c |    131161 |  177986   851041  2059553 |  1303687   131002    189 | 12.739 % |
c |    196845 |  177780   849926  2056882 |  1434055   195343    178 | 12.840 % |
c ===============================================================================
c restarts              : 687
c conflicts             : 287040         (1489 /sec)
c decisions             : 1498515        (0.00 % random) (7774 /sec)
c propagations          : 695272550      (3606933 /sec)
c conflict literals     : 51004980       (18.24 % deleted)
d RESTARTS             687
d FAILURES             287040       
d NODES                1498515      
d BACKTRACKS           1498515      
d PROPAGATIONS         695272550    
d NOGOODSIZE           177.69 
d MEMORY               413.00 
d TIME                 192.76 

s UNSATISFIABLE
